(set-logic UFDT)
(declare-datatypes ((nat 0)) (((zero) (s (s0 nat)))))
(declare-fun add (nat nat) nat)
(non-erasing add 2)
(injective add (true true))
(declare-fun leq (nat nat) Bool)
(assert (forall ((y nat)) (= (add zero y) y)))
(assert (forall ((x nat) (y nat)) (= (add (s x) y) (s (add x y)))))
(assert (forall ((y nat)) (leq zero y)))
(assert (forall ((x nat)) (not (leq (s x) zero))))
(assert (forall ((x nat) (y nat)) (= (leq (s x) (s y)) (leq x y))))
(assert (not (forall ((v0 nat) (v1 nat) (v2 nat) (v3 nat) (v4 nat) (v5 nat) (v6 nat) (v7 nat) (v8 nat)) (= (add (s v6) (add v0 (add (s (add (s (add v3 (s (s (s v8))))) v1)) (s (s (s (s (s (s (s (add (add (s v7) v5) (add v2 (s v4))))))))))))) (add (s (add (add (s v2) (s (add (s (add (s (s (add (s v7) v1))) v4)) (s (add v6 v8))))) (s (s (add (s (s v0)) (s (s v5))))))) (s v3))))))
(check-sat)
